0 5075
2401 4951
4802 4846
7203 4760
9604 4687
12005 4619
14406 4563
16807 4497
19208 4438
21609 4399
24010 4356
26411 4312
28812 4265
31213 4219
33614 4192
36015 4164
38416 4152
40817 4133
43218 4124
45619 4122
48020 4120
50421 4115
